nbrTasks = 22;
nbrFixtures = 1;
nbrMachines = 2;
nbrTools = 2;
nbrCycles = 1;
name = ["Lift top-button, support","Take ring","Mount top-button-ring on bottom-switch","Mount switch in bottom","Mount button on top","Fixate top-button-ring","Lift top-button, hold top-button","Mount ring on top-button, mount","Take bottom-switch","Angle top-button","Mount ring on top-button, hold","Take bottom","Take top-button-ring from top-tray","Grab top-button from fixture","Put bottom-switch on table","Take switch","Put top in fixture","Put bottom in fixture","Take top","Put top-button-ring in top-tray","Take button","Turn top-button","Start dummy1","Start dummy2","Goal dummy1","Goal dummy2"];

duration = [5,10,15,15,25,15,5,260,0,5,260,5,5,5,5,5,10,10,5,5,5,20,0,0,0,0];

identicalTasks = [{1},{2},{3},{4},{5},{6},{7},{8},{9},{10},{11},{12},{13},{14},{15},{16},{17},{18},{19},{20},{21},{22}];

cycleNbr = [0,0,0,0,0,0,0,0,0,0,0,0,0,0,0,0,0,0,0,0,0,0];

% Trays
% 1: Ring tray
% 2: Switch tray
% 3: Button tray
% 4: Bottom tray
% 5: top-tray
tray = [0,1,0,0,0,0,0,0,0,0,0,4,5,0,0,2,0,0,5,5,3,0];

% Outputs
% 1: Output
out_put = [0,0,1,0,0,0,0,0,0,0,0,0,0,0,1,0,0,0,0,0,0,0];

% Fixtures
% 1: Front fixture
fixture = [0,0,0,1,1,1,0,0,1,1,0,0,0,1,0,0,1,1,0,0,0,0];

% Components
% 1: Bottom
% 2: Switch
% 3: Top
% 4: Button
% 5: Bottom-Switch
% 6: Ring
% 7: Top-Button
% 8: Top-Button-Ring
% 9: Complete
componentsUsed = [{7},{6},{8,5},{1,2},{3,4},{8},{7},{6},{5},{7},{7},{1},{8},{7},{5},{2},{3},{1},{3},{8},{4},{7}];
nbrComponents = 9;

taskSubComponents = [{3,4},{6},{7,6,1,2},{1,2},{3,4},{7,6},{3,4},{6},{1,2},{3,4},{3,4},{1},{7,6},{3,4},{1,2},{2},{3},{1},{3},{7,6},{4},{3,4}];
subComponents = [{},{},{},{},{1,2},{},{3,4},{7,6},{8,5}];
taskCompleteSubComponents = [{3,4},{},{1,2,3,4,6,7},{},{},{3,4,6,7},{3,4},{},{1,2},{3,4},{3,4},{},{3,4,6,7},{3,4},{1,2},{},{},{},{},{3,4,6,7},{},{3,4}];

componentCreated = [0,0,9,5,7,0,0,8,0,0,8,0,0,0,0,0,0,0,0,0,0,0];

% putting a component
putting = {15,17,18,20};

% mounting a component
mounting = {3,4,5,8,11};

% taking a component
taking = {2,9,10,12,13,16,19,21};

% moving a component
moving = {1,6,7,22};

concurrentTasks = [{7,1},{11,8}];
nbrConcurrentGroups = 2;

order = [|
14,10,7,22,11,6,20|];
maxOrderedLength = 7;
orderedGroups = 1;

timeToTask = [|
7,7,8,7,7,7,7,0,7,7,0,4,3,7,8,6,7,7,3,3,7,0,0,0|
9,0,8,9,9,9,9,7,9,9,7,3,10,9,8,4,9,9,10,10,11,7,0,0|
2,8,0,2,2,1,2,8,2,2,8,7,9,2,0,4,2,2,9,9,5,8,0,0|
0,9,2,0,0,1,0,7,0,0,7,8,8,0,2,5,0,0,8,8,3,7,0,0|
0,9,2,0,0,1,0,7,0,0,7,8,8,0,2,5,0,0,8,8,3,7,0,0|
1,9,1,1,1,0,1,7,1,1,7,7,9,1,1,4,1,1,9,9,4,7,0,0|
7,7,8,7,7,7,7,0,7,7,0,4,3,7,8,6,7,7,3,3,7,0,0,0|
7,7,8,7,7,7,7,0,7,7,0,4,3,7,8,6,7,7,3,3,7,0,0,0|
0,9,2,0,0,1,0,7,0,0,7,8,8,0,2,5,0,0,8,8,3,7,0,0|
0,9,2,0,0,1,0,7,0,0,7,8,8,0,2,5,0,0,8,8,3,7,0,0|
7,7,8,7,7,7,7,0,7,7,0,4,3,7,8,6,7,7,3,3,7,0,0,0|
8,3,7,8,8,7,8,4,8,8,4,0,7,8,7,4,8,8,7,7,9,4,0,0|
8,10,9,8,8,9,8,3,8,8,3,7,0,8,9,9,8,8,0,0,7,3,0,0|
0,9,2,0,0,1,0,7,0,0,7,8,8,0,2,5,0,0,8,8,3,7,0,0|
2,8,0,2,2,1,2,8,2,2,8,7,9,2,0,4,2,2,9,9,5,8,0,0|
5,4,4,5,5,4,5,6,5,5,6,4,9,5,4,0,5,5,9,9,8,6,0,0|
0,9,2,0,0,1,0,7,0,0,7,8,8,0,2,5,0,0,8,8,3,7,0,0|
0,9,2,0,0,1,0,7,0,0,7,8,8,0,2,5,0,0,8,8,3,7,0,0|
8,10,9,8,8,9,8,3,8,8,3,7,0,8,9,9,8,8,0,0,7,3,0,0|
8,10,9,8,8,9,8,3,8,8,3,7,0,8,9,9,8,8,0,0,7,3,0,0|
3,11,5,3,3,4,3,7,3,3,7,9,7,3,5,8,3,3,7,7,0,7,0,0|
7,7,8,7,7,7,7,0,7,7,0,4,3,7,8,6,7,7,3,3,7,0,0,0|
7,7,8,7,7,7,7,0,7,7,0,4,3,7,8,6,7,7,3,3,7,0,0,0|
7,7,8,7,7,7,7,0,7,7,0,4,3,7,8,6,7,7,3,3,7,0,0,0|];
timeToChange = [3,7,10,10,10,10,3,3,10,10,3,4,5,10,10,8,10,10,5,5,10,3,3,3];
timeFromChange = [10,7,10,10,10,10,10,3,10,10,3,4,5,10,10,8,10,10,5,5,10,3,0,0,0,0];
timeMatrix3D = array3d(1..24,1..22,1..2,[7,73,7,70,8,73,7,73,7,73,7,73,7,73,0,66,7,73,7,73,0,66,4,67,3,68,7,73,8,73,6,71,7,73,7,73,3,68,3,68,7,73,0,66,9,77,0,74,8,77,9,77,9,77,9,77,9,77,7,70,9,77,9,77,7,70,3,71,10,72,9,77,8,77,4,75,9,77,9,77,10,72,10,72,11,77,7,70,2,80,8,77,0,80,2,80,2,80,1,80,2,80,8,73,2,80,2,80,8,73,7,74,9,75,2,80,0,80,4,78,2,80,2,80,9,75,9,75,5,80,8,73,0,80,9,77,2,80,0,80,0,80,1,80,0,80,7,73,0,80,0,80,7,73,8,74,8,75,0,80,2,80,5,78,0,80,0,80,8,75,8,75,3,80,7,73,0,80,9,77,2,80,0,80,0,80,1,80,0,80,7,73,0,80,0,80,7,73,8,74,8,75,0,80,2,80,5,78,0,80,0,80,8,75,8,75,3,80,7,73,1,80,9,77,1,80,1,80,1,80,0,80,1,80,7,73,1,80,1,80,7,73,7,74,9,75,1,80,1,80,4,78,1,80,1,80,9,75,9,75,4,80,7,73,7,73,7,70,8,73,7,73,7,73,7,73,7,73,0,66,7,73,7,73,0,66,4,67,3,68,7,73,8,73,6,71,7,73,7,73,3,68,3,68,7,73,0,66,7,73,7,70,8,73,7,73,7,73,7,73,7,73,0,66,7,73,7,73,0,66,4,67,3,68,7,73,8,73,6,71,7,73,7,73,3,68,3,68,7,73,0,66,0,80,9,77,2,80,0,80,0,80,1,80,0,80,7,73,0,80,0,80,7,73,8,74,8,75,0,80,2,80,5,78,0,80,0,80,8,75,8,75,3,80,7,73,0,80,9,77,2,80,0,80,0,80,1,80,0,80,7,73,0,80,0,80,7,73,8,74,8,75,0,80,2,80,5,78,0,80,0,80,8,75,8,75,3,80,7,73,7,73,7,70,8,73,7,73,7,73,7,73,7,73,0,66,7,73,7,73,0,66,4,67,3,68,7,73,8,73,6,71,7,73,7,73,3,68,3,68,7,73,0,66,8,74,3,71,7,74,8,74,8,74,7,74,8,74,4,67,8,74,8,74,4,67,0,68,7,69,8,74,7,74,4,72,8,74,8,74,7,69,7,69,9,74,4,67,8,75,10,72,9,75,8,75,8,75,9,75,8,75,3,68,8,75,8,75,3,68,7,69,0,70,8,75,9,75,9,73,8,75,8,75,0,70,0,70,7,75,3,68,0,80,9,77,2,80,0,80,0,80,1,80,0,80,7,73,0,80,0,80,7,73,8,74,8,75,0,80,2,80,5,78,0,80,0,80,8,75,8,75,3,80,7,73,2,80,8,77,0,80,2,80,2,80,1,80,2,80,8,73,2,80,2,80,8,73,7,74,9,75,2,80,0,80,4,78,2,80,2,80,9,75,9,75,5,80,8,73,5,78,4,75,4,78,5,78,5,78,4,78,5,78,6,71,5,78,5,78,6,71,4,72,9,73,5,78,4,78,0,76,5,78,5,78,9,73,9,73,8,78,6,71,0,80,9,77,2,80,0,80,0,80,1,80,0,80,7,73,0,80,0,80,7,73,8,74,8,75,0,80,2,80,5,78,0,80,0,80,8,75,8,75,3,80,7,73,0,80,9,77,2,80,0,80,0,80,1,80,0,80,7,73,0,80,0,80,7,73,8,74,8,75,0,80,2,80,5,78,0,80,0,80,8,75,8,75,3,80,7,73,8,75,10,72,9,75,8,75,8,75,9,75,8,75,3,68,8,75,8,75,3,68,7,69,0,70,8,75,9,75,9,73,8,75,8,75,0,70,0,70,7,75,3,68,8,75,10,72,9,75,8,75,8,75,9,75,8,75,3,68,8,75,8,75,3,68,7,69,0,70,8,75,9,75,9,73,8,75,8,75,0,70,0,70,7,75,3,68,3,80,11,77,5,80,3,80,3,80,4,80,3,80,7,73,3,80,3,80,7,73,9,74,7,75,3,80,5,80,8,78,3,80,3,80,7,75,7,75,0,80,7,73,7,73,7,70,8,73,7,73,7,73,7,73,7,73,0,66,7,73,7,73,0,66,4,67,3,68,7,73,8,73,6,71,7,73,7,73,3,68,3,68,7,73,0,66,7,73,7,70,8,73,7,73,7,73,7,73,7,73,0,66,7,73,7,73,0,66,4,67,3,68,7,73,8,73,6,71,7,73,7,73,3,68,3,68,7,73,0,66,7,73,7,70,8,73,7,73,7,73,7,73,7,73,0,66,7,73,7,73,0,66,4,67,3,68,7,73,8,73,6,71,7,73,7,73,3,68,3,68,7,73,0,66,]);
timeMatrix3DDepth = 2;

% Tools
% 1: tool1
% 2: tool2
toolNeeded = [0,1,1,2,1,1,1,1,2,1,1,2,1,1,2,2,1,2,1,1,1,1,0,0];

changeToolDuration = [|0,60|
60,0|];
